Minimize
 obj: 2045584 s1 + 2756105 s2 + 3795708 s3 + 2405417 s4 + 3711846 s5 + 4039877 s6 + 3440090 s7 + 3797174 s8 + 2586320 s9 + 4357993 s10 
+ 2908204 s11 + 3484028 s12 + 4214503 s13 + 4534020 s14 + 4365615 s15 + 3903748 s16 + 3015418 s17 + 3504162 s18 + 3243010 s19 + 3016187 s20 
+ 3014223 s21 + 3313664 s22 
Subject To
 c1_more_characters_to_get_a_long_name: s1 + s2 + s3 + s4 + s5 + s6 + s7 + s8 + s9 + s10 
+ s11 + s12 + s13 + s14 + s15 + s16 + s17 + s18 + s19 + s20 
+ s21 + s22 = 4
BINARY
 s1 s2 s3 s4 s5 s6 s7 s8 s9 s10 s11 s12 s13 s14 s15 s16 s17 s18 s19 s20 s21 s22
SOS
set1: S1::  s1:1  s2:2  s3:3  s4:4  s5:5  s6:6  s7:7  s8:8  s9:9  s10:10 
  s11:11  s12:12  s13:13  s14:14 s15:15 s16:16 s17:17 s18:18 s19:19 s20:20
END